CMPL model generation - running

CMPL version: 1.11.0
Authors: Thomas Schleiff, Mike Steglich
Distributed under the GPLv3 

create model instance ...
write model instance ...
CMPL model generation - finished

Solver - running


Welcome to IBM(R) ILOG(R) CPLEX(R) Interactive Optimizer 12.7.1.0
  with Simplex, Mixed Integer & Barrier Optimizers
5725-A06 5725-A29 5724-Y48 5724-Y49 5724-Y54 5724-Y55 5655-Y21
Copyright IBM Corp. 1988, 2017.  All Rights Reserved.

Type 'help' for a list of available commands.
Type 'help' followed by a command name for more
information on commands.

CPLEX> Specified objective sense: MINIMIZE
Selected objective  name:  line[1]
Selected RHS        name:  RHS
Selected bound      name:  BOUND
Problem '/tmp/cmpl.T24328.mps' read.
Read time = 0.07 sec. (8.17 ticks)
CPLEX> CPXPARAM_Read_APIEncoding                        "UTF-8"
Tried aggregator 3 times.
MIP Presolve eliminated 19174 rows and 30583 columns.
MIP Presolve modified 340 coefficients.
Aggregator did 671 substitutions.
Reduced MIP has 2510 rows, 3339 columns, and 9733 nonzeros.
Reduced MIP has 3171 binaries, 0 generals, 0 SOSs, and 0 indicators.
Presolve time = 0.05 sec. (40.57 ticks)
Found incumbent of value 811.795662 after 0.10 sec. (64.86 ticks)
Probing fixed 7 vars, tightened 0 bounds.
Probing time = 0.01 sec. (4.39 ticks)
Tried aggregator 1 time.
MIP Presolve eliminated 0 rows and 7 columns.
MIP Presolve modified 33 coefficients.
Reduced MIP has 2510 rows, 3332 columns, and 9719 nonzeros.
Reduced MIP has 3332 binaries, 0 generals, 0 SOSs, and 0 indicators.
Presolve time = 0.01 sec. (8.18 ticks)
Probing time = 0.01 sec. (2.69 ticks)
Clique table members: 5995.
MIP emphasis: balance optimality and feasibility.
MIP search method: dynamic search.
Parallel mode: none, using 1 thread.
Root relaxation solution time = 0.01 sec. (5.13 ticks)

        Nodes                                         Cuts/
   Node  Left     Objective  IInf  Best Integer    Best Bound    ItCnt     Gap

*     0+    0                          811.7957      -36.1740           104.46%
      0     0      245.7688     8      811.7957      245.7688      197   69.73%
*     0+    0                          245.9974      245.7688             0.09%
      0     0      245.9408     1      245.9974      Cuts: 14      201    0.02%
*     0+    0                          245.9694      245.9408             0.01%
*     0+    0                          245.9455      245.9408             0.00%
      0     0        cutoff            245.9455      245.9408      202    0.00%
Elapsed time = 0.17 sec. (112.76 ticks, tree = 0.01 MB, solutions = 4)

GUB cover cuts applied:  1
Clique cuts applied:  2
Cover cuts applied:  7
Gomory fractional cuts applied:  4

Root node processing (before b&c):
  Real time             =    0.17 sec. (114.48 ticks)
Sequential b&c:
  Real time             =    0.00 sec. (0.00 ticks)
                          ------------
Total (root+branch&cut) =    0.17 sec. (114.48 ticks)

Solution pool: 4 solutions saved.

MIP - Integer optimal solution:  Objective =  2.4594552500e+02
Solution time =    0.17 sec.  Iterations = 202  Nodes = 0
Deterministic time = 114.58 ticks  (658.89 ticks/sec)

CPLEX> Incumbent solution written to file '/tmp/cmpl.T24328.gsol'.
CPLEX> 
CMPL: Time used for model generation: 1 seconds
CMPL: Time used for solving the model: 1 seconds


Solution written to ASCII file: results/output_generated_conf_0.6/2017-01-09-4/fair-nonlinear.sol

Solver - finished
